nPeces = 10;

durada = [10,35,45,5,10,30,40,40,40,25];

nInstruments = 3;

requereix = [| 1, 1, 1, 
| 2, 0, 0, 
| 0, 2, 0, 
| 2, 0, 1, 
| 2, 1, 1, 
| 1, 1, 1, 
| 2, 0, 2, 
| 2, 1, 1, 
| 2, 1, 2, 
| 2, 2, 1, 
|];

nMusics = 8;

saptocar = [| false, true, false,
| false, false, true,
| false, true, false,
| true, false, false,
| false, true, true,
| false, true, false, 
| false, true, true,
| true, false, true, 
|];

pressupost = 2000;

salari = [2,2,2,2,3,2,2,2];

nPrecs = 12;
pred = [1,1,1,1,2,2,3,3,4,5,6,6];
succ = [4,6,7,2,8,4,9,5,6,9,8,10];

